\ENCODING=ISO-8859-1
\Problem name: IloCplex

Minimize
 obj1: 999999 x(0)(0)#0 + 18.6815416922694 x(0)(1)#1
       + 20.6155281280883 x(0)(2)#2 + 16.1245154965971 x(0)(3)#3
       + 18.1107702762748 x(0)(4)#4 + 15.1327459504216 x(0)(5)#5 + 19 x(0)(6)#6
       + 16 x(0)(7)#7 + 18.1107702762748 x(0)(8)#8 + 20.0997512422418 x(0)(9)#9
       + 16.7630546142402 x(0)(10)#10 + 18.6815416922694 x(1)(0)#11
       + 999999 x(1)(1)#12 + 2 x(1)(2)#13 + 3.60555127546399 x(1)(3)#14
       + 3 x(1)(4)#15 + 4.24264068711928 x(1)(5)#16
       + 5.09901951359278 x(1)(6)#17 + 5.3851648071345 x(1)(7)#18
       + 7 x(1)(8)#19 + 7.28010988928052 x(1)(9)#20
       + 10.1980390271856 x(1)(10)#21 + 20.6155281280883 x(2)(0)#22
       + 2 x(2)(1)#23 + 999999 x(2)(2)#24 + 5 x(2)(3)#25
       + 3.60555127546399 x(2)(4)#26 + 5.8309518948453 x(2)(5)#27
       + 5.09901951359278 x(2)(6)#28 + 6.40312423743285 x(2)(7)#29
       + 7.28010988928052 x(2)(8)#30 + 7 x(2)(9)#31
       + 10.770329614269 x(2)(10)#32 + 16.1245154965971 x(3)(0)#33
       + 3.60555127546399 x(3)(1)#34 + 5 x(3)(2)#35 + 999999 x(3)(3)#36
       + 2 x(3)(4)#37 + x(3)(5)#38 + 3.60555127546399 x(3)(6)#39 + 2 x(3)(7)#40
       + 4.47213595499958 x(3)(8)#41 + 5.65685424949238 x(3)(9)#42
       + 7 x(3)(10)#43 + 18.1107702762748 x(4)(0)#44 + 3 x(4)(1)#45
       + 3.60555127546399 x(4)(2)#46 + 2 x(4)(3)#47 + 999999 x(4)(4)#48
       + 3 x(4)(5)#49 + 2.23606797749979 x(4)(6)#50
       + 2.82842712474619 x(4)(7)#51 + 4 x(4)(8)#52
       + 4.47213595499958 x(4)(9)#53 + 7.28010988928052 x(4)(10)#54
       + 15.1327459504216 x(5)(0)#55 + 4.24264068711928 x(5)(1)#56
       + 5.8309518948453 x(5)(2)#57 + x(5)(3)#58 + 3 x(5)(4)#59
       + 999999 x(5)(5)#60 + 4.47213595499958 x(5)(6)#61
       + 2.23606797749979 x(5)(7)#62 + 5 x(5)(8)#63
       + 6.40312423743285 x(5)(9)#64 + 7.07106781186548 x(5)(10)#65
       + 19 x(6)(0)#66 + 5.09901951359278 x(6)(1)#67
       + 5.09901951359278 x(6)(2)#68 + 3.60555127546399 x(6)(3)#69
       + 2.23606797749979 x(6)(4)#70 + 4.47213595499958 x(6)(5)#71
       + 999999 x(6)(6)#72 + 3 x(6)(7)#73 + 2.23606797749979 x(6)(8)#74
       + 2.23606797749979 x(6)(9)#75 + 5.8309518948453 x(6)(10)#76
       + 16 x(7)(0)#77 + 5.3851648071345 x(7)(1)#78
       + 6.40312423743285 x(7)(2)#79 + 2 x(7)(3)#80
       + 2.82842712474619 x(7)(4)#81 + 2.23606797749979 x(7)(5)#82
       + 3 x(7)(6)#83 + 999999 x(7)(7)#84 + 2.82842712474619 x(7)(8)#85
       + 4.47213595499958 x(7)(9)#86 + 5 x(7)(10)#87
       + 18.1107702762748 x(8)(0)#88 + 7 x(8)(1)#89
       + 7.28010988928052 x(8)(2)#90 + 4.47213595499958 x(8)(3)#91
       + 4 x(8)(4)#92 + 5 x(8)(5)#93 + 2.23606797749979 x(8)(6)#94
       + 2.82842712474619 x(8)(7)#95 + 999999 x(8)(8)#96 + 2 x(8)(9)#97
       + 3.60555127546399 x(8)(10)#98 + 20.0997512422418 x(9)(0)#99
       + 7.28010988928052 x(9)(1)#100 + 7 x(9)(2)#101
       + 5.65685424949238 x(9)(3)#102 + 4.47213595499958 x(9)(4)#103
       + 6.40312423743285 x(9)(5)#104 + 2.23606797749979 x(9)(6)#105
       + 4.47213595499958 x(9)(7)#106 + 2 x(9)(8)#107 + 999999 x(9)(9)#108
       + 5 x(9)(10)#109 + 16.7630546142402 x(10)(0)#110
       + 10.1980390271856 x(10)(1)#111 + 10.770329614269 x(10)(2)#112
       + 7 x(10)(3)#113 + 7.28010988928052 x(10)(4)#114
       + 7.07106781186548 x(10)(5)#115 + 5.8309518948453 x(10)(6)#116
       + 5 x(10)(7)#117 + 3.60555127546399 x(10)(8)#118 + 5 x(10)(9)#119
       + 999999 x(10)(10)#120
Subject To
 chegadaNoCliente(1)#0:  x(0)(1)#1 + x(2)(1)#23 + x(3)(1)#34 + x(4)(1)#45
                         + x(5)(1)#56 + x(6)(1)#67 + x(7)(1)#78 + x(8)(1)#89
                         + x(9)(1)#100 + x(10)(1)#111  = 1
 chegadaNoCliente(2)#1:  x(0)(2)#2 + x(1)(2)#13 + x(3)(2)#35 + x(4)(2)#46
                         + x(5)(2)#57 + x(6)(2)#68 + x(7)(2)#79 + x(8)(2)#90
                         + x(9)(2)#101 + x(10)(2)#112  = 1
 chegadaNoCliente(3)#2:  x(0)(3)#3 + x(1)(3)#14 + x(2)(3)#25 + x(4)(3)#47
                         + x(5)(3)#58 + x(6)(3)#69 + x(7)(3)#80 + x(8)(3)#91
                         + x(9)(3)#102 + x(10)(3)#113  = 1
 chegadaNoCliente(4)#3:  x(0)(4)#4 + x(1)(4)#15 + x(2)(4)#26 + x(3)(4)#37
                         + x(5)(4)#59 + x(6)(4)#70 + x(7)(4)#81 + x(8)(4)#92
                         + x(9)(4)#103 + x(10)(4)#114  = 1
 chegadaNoCliente(5)#4:  x(0)(5)#5 + x(1)(5)#16 + x(2)(5)#27 + x(3)(5)#38
                         + x(4)(5)#49 + x(6)(5)#71 + x(7)(5)#82 + x(8)(5)#93
                         + x(9)(5)#104 + x(10)(5)#115  = 1
 chegadaNoCliente(6)#5:  x(0)(6)#6 + x(1)(6)#17 + x(2)(6)#28 + x(3)(6)#39
                         + x(4)(6)#50 + x(5)(6)#61 + x(7)(6)#83 + x(8)(6)#94
                         + x(9)(6)#105 + x(10)(6)#116  = 1
 chegadaNoCliente(7)#6:  x(0)(7)#7 + x(1)(7)#18 + x(2)(7)#29 + x(3)(7)#40
                         + x(4)(7)#51 + x(5)(7)#62 + x(6)(7)#73 + x(8)(7)#95
                         + x(9)(7)#106 + x(10)(7)#117  = 1
 chegadaNoCliente(8)#7:  x(0)(8)#8 + x(1)(8)#19 + x(2)(8)#30 + x(3)(8)#41
                         + x(4)(8)#52 + x(5)(8)#63 + x(6)(8)#74 + x(7)(8)#85
                         + x(9)(8)#107 + x(10)(8)#118  = 1
 chegadaNoCliente(9)#8:  x(0)(9)#9 + x(1)(9)#20 + x(2)(9)#31 + x(3)(9)#42
                         + x(4)(9)#53 + x(5)(9)#64 + x(6)(9)#75 + x(7)(9)#86
                         + x(8)(9)#97 + x(10)(9)#119  = 1
 chegadaNoCliente(10)#9: x(0)(10)#10 + x(1)(10)#21 + x(2)(10)#32 + x(3)(10)#43
                         + x(4)(10)#54 + x(5)(10)#65 + x(6)(10)#76
                         + x(7)(10)#87 + x(8)(10)#98 + x(9)(10)#109  = 1
 saidaDoCliente(1)#10:   x(1)(0)#11 + x(1)(2)#13 + x(1)(3)#14 + x(1)(4)#15
                         + x(1)(5)#16 + x(1)(6)#17 + x(1)(7)#18 + x(1)(8)#19
                         + x(1)(9)#20 + x(1)(10)#21  = 1
 saidaDoCliente(2)#11:   x(2)(0)#22 + x(2)(1)#23 + x(2)(3)#25 + x(2)(4)#26
                         + x(2)(5)#27 + x(2)(6)#28 + x(2)(7)#29 + x(2)(8)#30
                         + x(2)(9)#31 + x(2)(10)#32  = 1
 saidaDoCliente(3)#12:   x(3)(0)#33 + x(3)(1)#34 + x(3)(2)#35 + x(3)(4)#37
                         + x(3)(5)#38 + x(3)(6)#39 + x(3)(7)#40 + x(3)(8)#41
                         + x(3)(9)#42 + x(3)(10)#43  = 1
 saidaDoCliente(4)#13:   x(4)(0)#44 + x(4)(1)#45 + x(4)(2)#46 + x(4)(3)#47
                         + x(4)(5)#49 + x(4)(6)#50 + x(4)(7)#51 + x(4)(8)#52
                         + x(4)(9)#53 + x(4)(10)#54  = 1
 saidaDoCliente(5)#14:   x(5)(0)#55 + x(5)(1)#56 + x(5)(2)#57 + x(5)(3)#58
                         + x(5)(4)#59 + x(5)(6)#61 + x(5)(7)#62 + x(5)(8)#63
                         + x(5)(9)#64 + x(5)(10)#65  = 1
 saidaDoCliente(6)#15:   x(6)(0)#66 + x(6)(1)#67 + x(6)(2)#68 + x(6)(3)#69
                         + x(6)(4)#70 + x(6)(5)#71 + x(6)(7)#73 + x(6)(8)#74
                         + x(6)(9)#75 + x(6)(10)#76  = 1
 saidaDoCliente(7)#16:   x(7)(0)#77 + x(7)(1)#78 + x(7)(2)#79 + x(7)(3)#80
                         + x(7)(4)#81 + x(7)(5)#82 + x(7)(6)#83 + x(7)(8)#85
                         + x(7)(9)#86 + x(7)(10)#87  = 1
 saidaDoCliente(8)#17:   x(8)(0)#88 + x(8)(1)#89 + x(8)(2)#90 + x(8)(3)#91
                         + x(8)(4)#92 + x(8)(5)#93 + x(8)(6)#94 + x(8)(7)#95
                         + x(8)(9)#97 + x(8)(10)#98  = 1
 saidaDoCliente(9)#18:   x(9)(0)#99 + x(9)(1)#100 + x(9)(2)#101 + x(9)(3)#102
                         + x(9)(4)#103 + x(9)(5)#104 + x(9)(6)#105
                         + x(9)(7)#106 + x(9)(8)#107 + x(9)(10)#109  = 1
 saidaDoCliente(10)#19:  x(10)(0)#110 + x(10)(1)#111 + x(10)(2)#112
                         + x(10)(3)#113 + x(10)(4)#114 + x(10)(5)#115
                         + x(10)(6)#116 + x(10)(7)#117 + x(10)(8)#118
                         + x(10)(9)#119  = 1
 saida_Deposito#20:      x(0)(1)#1 + x(0)(2)#2 + x(0)(3)#3 + x(0)(4)#4
                         + x(0)(5)#5 + x(0)(6)#6 + x(0)(7)#7 + x(0)(8)#8
                         + x(0)(9)#9 + x(0)(10)#10 >= 1
 retorno_Deposito#21:    x(1)(0)#11 + x(2)(0)#22 + x(3)(0)#33 + x(4)(0)#44
                         + x(5)(0)#55 + x(6)(0)#66 + x(7)(0)#77 + x(8)(0)#88
                         + x(9)(0)#99 + x(10)(0)#110 >= 1
 c23#22:                 u(0)#121 >= 0
 c24#23:                 u(0)#121 <= 200
 c25#24:                 u(1)#122 >= 10
 c26#25:                 u(1)#122 <= 200
 c27#26:                 u(2)#123 >= 30
 c28#27:                 u(2)#123 <= 200
 c29#28:                 u(3)#124 >= 10
 c30#29:                 u(3)#124 <= 200
 c31#30:                 u(4)#125 >= 10
 c32#31:                 u(4)#125 <= 200
 c33#32:                 u(5)#126 >= 10
 c34#33:                 u(5)#126 <= 200
 c35#34:                 u(6)#127 >= 20
 c36#35:                 u(6)#127 <= 200
 c37#36:                 u(7)#128 >= 20
 c38#37:                 u(7)#128 <= 200
 c39#38:                 u(8)#129 >= 20
 c40#39:                 u(8)#129 <= 200
 c41#40:                 u(9)#130 >= 10
 c42#41:                 u(9)#130 <= 200
 c43#42:                 u(10)#131 >= 10
 c44#43:                 u(10)#131 <= 200
Bounds
      x(0)(0)#0 = 0
      x(0)(1)#1 = 0
      x(0)(2)#2 = 0
      x(0)(3)#3 = 0
      x(0)(4)#4 = 0
      x(0)(5)#5 = 0
      x(0)(6)#6 = 0
      x(0)(7)#7 = 0
      x(0)(8)#8 = 0
      x(0)(9)#9 = 0
      x(0)(10)#10 = 1
 0 <= x(1)(0)#11 <= 1
      x(1)(1)#12 = 0
 0 <= x(1)(2)#13 <= 1
 0 <= x(1)(3)#14 <= 1
      x(1)(4)#15 = 0
 0 <= x(1)(5)#16 <= 1
      x(1)(6)#17 = 0
 0 <= x(1)(7)#18 <= 1
      x(1)(8)#19 = 0
      x(1)(9)#20 = 0
      x(1)(10)#21 = 0
 0 <= x(2)(0)#22 <= 1
 0 <= x(2)(1)#23 <= 1
      x(2)(2)#24 = 0
 0 <= x(2)(3)#25 <= 1
      x(2)(4)#26 = 0
 0 <= x(2)(5)#27 <= 1
      x(2)(6)#28 = 0
 0 <= x(2)(7)#29 <= 1
      x(2)(8)#30 = 0
      x(2)(9)#31 = 0
      x(2)(10)#32 = 0
 0 <= x(3)(0)#33 <= 1
 0 <= x(3)(1)#34 <= 1
 0 <= x(3)(2)#35 <= 1
      x(3)(3)#36 = 0
      x(3)(4)#37 = 0
 0 <= x(3)(5)#38 <= 1
      x(3)(6)#39 = 0
 0 <= x(3)(7)#40 <= 1
      x(3)(8)#41 = 0
      x(3)(9)#42 = 0
      x(3)(10)#43 = 0
 0 <= x(4)(0)#44 <= 1
 0 <= x(4)(1)#45 <= 1
 0 <= x(4)(2)#46 <= 1
 0 <= x(4)(3)#47 <= 1
      x(4)(4)#48 = 0
 0 <= x(4)(5)#49 <= 1
      x(4)(6)#50 = 0
 0 <= x(4)(7)#51 <= 1
      x(4)(8)#52 = 0
      x(4)(9)#53 = 0
      x(4)(10)#54 = 0
 0 <= x(5)(0)#55 <= 1
 0 <= x(5)(1)#56 <= 1
 0 <= x(5)(2)#57 <= 1
 0 <= x(5)(3)#58 <= 1
      x(5)(4)#59 = 0
      x(5)(5)#60 = 0
      x(5)(6)#61 = 0
 0 <= x(5)(7)#62 <= 1
      x(5)(8)#63 = 0
      x(5)(9)#64 = 0
      x(5)(10)#65 = 0
      x(6)(0)#66 = 0
      x(6)(1)#67 = 0
      x(6)(2)#68 = 0
      x(6)(3)#69 = 0
      x(6)(4)#70 = 1
      x(6)(5)#71 = 0
      x(6)(6)#72 = 0
      x(6)(7)#73 = 0
      x(6)(8)#74 = 0
      x(6)(9)#75 = 0
      x(6)(10)#76 = 0
 0 <= x(7)(0)#77 <= 1
 0 <= x(7)(1)#78 <= 1
 0 <= x(7)(2)#79 <= 1
 0 <= x(7)(3)#80 <= 1
      x(7)(4)#81 = 0
 0 <= x(7)(5)#82 <= 1
      x(7)(6)#83 = 0
      x(7)(7)#84 = 0
      x(7)(8)#85 = 0
      x(7)(9)#86 = 0
      x(7)(10)#87 = 0
      x(8)(0)#88 = 0
      x(8)(1)#89 = 0
      x(8)(2)#90 = 0
      x(8)(3)#91 = 0
      x(8)(4)#92 = 0
      x(8)(5)#93 = 0
      x(8)(6)#94 = 0
      x(8)(7)#95 = 0
      x(8)(8)#96 = 0
      x(8)(9)#97 = 1
      x(8)(10)#98 = 0
      x(9)(0)#99 = 0
      x(9)(1)#100 = 0
      x(9)(2)#101 = 0
      x(9)(3)#102 = 0
      x(9)(4)#103 = 0
      x(9)(5)#104 = 0
      x(9)(6)#105 = 1
      x(9)(7)#106 = 0
      x(9)(8)#107 = 0
      x(9)(9)#108 = 0
      x(9)(10)#109 = 0
      x(10)(0)#110 = 0
      x(10)(1)#111 = 0
      x(10)(2)#112 = 0
      x(10)(3)#113 = 0
      x(10)(4)#114 = 0
      x(10)(5)#115 = 0
      x(10)(6)#116 = 0
      x(10)(7)#117 = 0
      x(10)(8)#118 = 1
      x(10)(9)#119 = 0
      x(10)(10)#120 = 0
Binaries
 x(0)(0)#0  x(0)(1)#1  x(0)(2)#2  x(0)(3)#3  x(0)(4)#4  x(0)(5)#5  x(0)(6)#6 
 x(0)(7)#7  x(0)(8)#8  x(0)(9)#9  x(0)(10)#10  x(4)(0)#44  x(4)(1)#45 
 x(4)(2)#46  x(4)(3)#47  x(4)(4)#48  x(4)(5)#49  x(4)(6)#50  x(4)(7)#51 
 x(4)(8)#52  x(4)(9)#53  x(4)(10)#54  x(6)(0)#66  x(6)(1)#67  x(6)(2)#68 
 x(6)(3)#69  x(6)(4)#70  x(6)(5)#71  x(6)(6)#72  x(6)(7)#73  x(6)(8)#74 
 x(6)(9)#75  x(6)(10)#76  x(8)(0)#88  x(8)(1)#89  x(8)(2)#90  x(8)(3)#91 
 x(8)(4)#92  x(8)(5)#93  x(8)(6)#94  x(8)(7)#95  x(8)(8)#96  x(8)(9)#97 
 x(8)(10)#98  x(9)(0)#99  x(9)(1)#100  x(9)(2)#101  x(9)(3)#102  x(9)(4)#103 
 x(9)(5)#104  x(9)(6)#105  x(9)(7)#106  x(9)(8)#107  x(9)(9)#108  x(9)(10)#109 
 x(10)(0)#110  x(10)(1)#111  x(10)(2)#112  x(10)(3)#113  x(10)(4)#114 
 x(10)(5)#115  x(10)(6)#116  x(10)(7)#117  x(10)(8)#118  x(10)(9)#119 
 x(10)(10)#120 
End
